
Log started (V12.10.0.0) Mon Apr  5 23:09:04 2021


Problem 'asset.lp' read.
Read time = 0.01 sec. (0.61 ticks)
New value for default parallel thread count: 1
New value for time limit in seconds: 150
Version identifier: 12.10.0.0 | 2019-11-26 | 843d4de
CPXPARAM_Threads                                 1
CPXPARAM_TimeLimit                               150
Found incumbent of value 0.000000 after 0.00 sec. (0.16 ticks)
Tried aggregator 3 times.
MIP Presolve eliminated 1630 rows and 691 columns.
MIP Presolve modified 4906 coefficients.
Aggregator did 1886 substitutions.
Reduced MIP has 2020 rows, 2460 columns, and 11445 nonzeros.
Reduced MIP has 2240 binaries, 157 generals, 0 SOSs, and 0 indicators.
Presolve time = 0.02 sec. (24.46 ticks)
Probing fixed 103 vars, tightened 5 bounds.
Probing time = 0.02 sec. (13.70 ticks)
Cover probing fixed 0 vars, tightened 56 bounds.
Tried aggregator 1 time.
Detecting symmetries...
MIP Presolve eliminated 125 rows and 117 columns.
MIP Presolve modified 708 coefficients.
Reduced MIP has 1895 rows, 2343 columns, and 10633 nonzeros.
Reduced MIP has 2128 binaries, 152 generals, 0 SOSs, and 0 indicators.
Presolve time = 0.01 sec. (9.87 ticks)
Probing time = 0.00 sec. (3.00 ticks)
Clique table members: 6611.
MIP emphasis: balance optimality and feasibility.
MIP search method: dynamic search.
Parallel mode: none, using 1 thread.
Root relaxation solution time = 0.04 sec. (59.54 ticks)

        Nodes                                         Cuts/
   Node  Left     Objective  IInf  Best Integer    Best Bound    ItCnt     Gap

*     0+    0                            0.0000      324.0000              --- 
      0     0      300.0000   330        0.0000      300.0000      911     --- 
      0     0      300.0000   330        0.0000     Cuts: 316     1779     --- 
      0     0      299.0000   330        0.0000     Cuts: 328     2709     --- 
      0     0      297.9942   330        0.0000     Cuts: 573     6724     --- 
*     0+    0                           12.0000      297.9942              --- 
      0     0        cutoff             12.0000      297.9942     6724     --- 
      0     0      297.9427   330       12.0000     Cuts: 573     8554     --- 
      0     0      296.9274   330       12.0000     Cuts: 573     9326     --- 
Detecting symmetries...
      0     0      296.9129   330       12.0000     Cuts: 573    11629     --- 
*     0+    0                           22.0000      296.9129              --- 
*     0+    0                           32.0000      296.9129           827.85%
      0     0      296.9065   330       32.0000     Cuts: 573    12553  827.83%
*     0+    0                           42.0000      296.9065           606.92%
Detecting symmetries...
      0     2      296.9065   402       42.0000      296.9065    12553  606.92%
Elapsed time = 2.44 sec. (3366.86 ticks, tree = 0.01 MB, solutions = 4)
      5     7      296.9065   295       42.0000      296.9065    14482  606.92%
     15    17      296.2761   316       42.0000      296.9065    17506  606.92%
     18    20      296.9065   269       42.0000      296.9065    20149  606.92%
     24    26      296.8886   340       42.0000      296.9065    22309  606.92%
     30    32      295.9065   305       42.0000      296.9065    23545  606.92%
     36    38      295.9065   295       42.0000      296.9065    25860  606.92%
     47    49      287.8159   255       42.0000      296.9065    28252  606.92%
     53    55      293.7552   301       42.0000      296.9065    31030  606.92%
     60    62      295.9065   262       42.0000      296.9065    33408  606.92%
    109   111      277.0000   211       42.0000      296.9065    40984  606.92%
Elapsed time = 5.21 sec. (7291.57 ticks, tree = 1.58 MB, solutions = 4)
    160   162      275.0000   204       42.0000      296.9065    49561  606.92%
    233   222      296.7317   337       42.0000      296.9065    57076  606.92%
    260   249      296.5711   300       42.0000      296.9065    65078  606.92%
    281   270      294.9278   282       42.0000      296.9065    72107  606.92%
    302   291      296.3960   306       42.0000      296.9065    77652  606.92%
    331   320      265.7603   222       42.0000      296.9065    87647  606.92%
*   502   471      integral     0      158.0000      296.9065    95009   87.92%
    506   471      295.8555   331      158.0000      296.9065    97167   87.92%
    529   494      292.0554   270      158.0000      296.9065   103096   87.92%
    600   565      269.0756   222      158.0000      296.9065   110012   87.92%
    676   641      295.3788   291      158.0000      296.9065   116958   87.92%
Elapsed time = 12.68 sec. (17543.08 ticks, tree = 8.70 MB, solutions = 5)
    760   725      264.0000   178      158.0000      296.9065   123196   87.92%
    817   782      295.6925   326      158.0000      296.9065   130235   87.92%
    852   817      295.9027   362      158.0000      296.9065   138725   87.92%
    880   845      295.4193   280      158.0000      296.9065   144565   87.92%
    898   863      277.0866   297      158.0000      296.9065   153142   87.92%
    965   925      240.0000   159      158.0000      296.9065   162415   87.92%
*   995+  947                          160.0000      296.9065            85.57%
*   995+  942                          168.0000      296.9065            76.73%
    995   944      296.6676   403      168.0000      296.9065   170684   76.73%
    998   947      296.4900   411      168.0000      296.9065   177242   76.73%
   1029   978      296.4658   394      168.0000      296.9065   185439   76.73%
   1059  1008      290.2030   350      168.0000      296.9065   189085   76.73%
Elapsed time = 21.91 sec. (29862.35 ticks, tree = 12.54 MB, solutions = 7)

Performing restart 1

Repeating presolve.
Tried aggregator 1 time.
MIP Presolve eliminated 6 rows and 0 columns.
MIP Presolve modified 3148 coefficients.
Reduced MIP has 1889 rows, 2343 columns, and 8875 nonzeros.
Reduced MIP has 2128 binaries, 152 generals, 0 SOSs, and 0 indicators.
Presolve time = 0.01 sec. (8.25 ticks)
Tried aggregator 1 time.
Reduced MIP has 1889 rows, 2343 columns, and 8875 nonzeros.
Reduced MIP has 2128 binaries, 152 generals, 0 SOSs, and 0 indicators.
Presolve time = 0.01 sec. (6.36 ticks)
Represolve time = 0.05 sec. (41.78 ticks)
   1105     0      285.2409   427      168.0000     Cuts: 572   203627   69.79%
   1105     0      281.1148   427      168.0000     Cuts: 418   205834   67.33%
   1105     0      278.1838   427      168.0000     Cuts: 430   207420   65.59%
   1105     0      277.3451   427      168.0000     Cuts: 380   209400   65.09%
   1105     0      276.7285   427      168.0000     Cuts: 269   211366   64.72%
   1105     0      276.2239   427      168.0000     Cuts: 252   212757   64.42%
   1105     0      275.7253   427      168.0000     Cuts: 228   213544   64.12%
   1105     0      275.0070   427      168.0000     Cuts: 265   214941   63.69%
   1105     0      274.5079   427      168.0000     Cuts: 227   216300   63.40%
   1105     0      274.1807   427      168.0000     Cuts: 267   217278   63.20%
   1105     0      273.9606   427      168.0000     Cuts: 173   217966   63.07%
   1105     0      273.8809   427      168.0000     Cuts: 236   218507   63.02%
   1105     0      273.6190   427      168.0000     Cuts: 120   219398   62.87%
   1105     0      273.3584   427      168.0000     Cuts: 217   220031   62.71%
   1105     0      273.2300   427      168.0000     Cuts: 191   220531   62.64%
   1105     0      273.0335   427      168.0000     Cuts: 175   221047   62.52%
   1105     0      272.8869   427      168.0000     Cuts: 180   221437   62.43%
   1105     0      272.8037   427      168.0000     Cuts: 128   221726   62.38%
   1105     0      272.7396   427      168.0000     Cuts: 108   222228   62.35%
   1105     0      272.7043   427      168.0000     Cuts: 141   222464   62.32%
   1105     0      272.6253   427      168.0000     Cuts: 132   222994   62.28%
   1105     0      272.5233   427      168.0000     Cuts: 181   223545   62.22%
   1105     0      272.4881   427      168.0000     Cuts: 135   224110   62.20%
   1105     0      272.4595   427      168.0000     Cuts: 128   224311   62.18%
   1105     0      272.4134   427      168.0000     Cuts: 113   224787   62.15%
   1105     0      272.3400   427      168.0000     Cuts: 146   225281   62.11%
   1105     0      272.2766   427      168.0000     Cuts: 204   225970   62.07%
   1105     0      272.1955   427      168.0000     Cuts: 215   226306   62.02%
   1105     0      272.1405   427      168.0000     Cuts: 113   226658   61.99%
   1105     0      272.1204   427      168.0000      Cuts: 86   226951   61.98%
   1105     0      272.0740   427      168.0000     Cuts: 100   227322   61.95%
*  1105+    0                          180.0000      272.0740            51.15%
   1105     0        cutoff            180.0000      272.0740   227322   51.15%
   1105     2      272.0740   448      180.0000      272.0737   227322   51.15%
   1108     5      270.6572   401      180.0000      272.0454   229787   51.14%
   1111     8      268.4069   385      180.0000      272.0454   234654   51.14%
   1114    11      265.6611   359      180.0000      272.0454   238756   51.14%
   1115    12      266.3677   364      180.0000      272.0454   240902   51.14%
   1119    16      265.4386   376      180.0000      272.0454   244698   51.14%
   1124    21      267.5273   352      180.0000      272.0454   247983   51.14%
   1129    26      265.5655   343      180.0000      272.0454   252123   51.14%
   1136    33      264.1656   298      180.0000      272.0454   256470   51.14%
   1143    40      261.7184   322      180.0000      272.0454   261596   51.14%
Elapsed time = 51.97 sec. (69443.93 ticks, tree = 0.13 MB, solutions = 8)
   1151    48      261.8669   329      180.0000      272.0454   265575   51.14%
   1163    60      261.3877   297      180.0000      272.0454   268403   51.14%
   1175    72      260.5116   301      180.0000      272.0454   270558   51.14%
   1185    82      258.9976   307      180.0000      272.0454   272915   51.14%
   1222   116      250.9030   256      180.0000      272.0454   278151   51.14%
   1271   163      245.1512   204      180.0000      272.0454   282995   51.14%
   1305   186      271.9949   411      180.0000      272.0384   286525   51.13%
   1310   191      269.4204   368      180.0000      272.0384   292247   51.13%
   1325   206      266.2045   342      180.0000      272.0384   297673   51.13%
   1339   220      263.7805   328      180.0000      272.0384   302358   51.13%
Elapsed time = 59.70 sec. (80485.37 ticks, tree = 3.52 MB, solutions = 8)
   1349   230      254.7896   274      180.0000      272.0384   307109   51.13%
   1386   267      254.7019   270      180.0000      272.0384   312394   51.13%
   1405   286      256.2474   278      180.0000      272.0384   313764   51.13%
   1453   333      250.7530   242      180.0000      272.0384   318732   51.13%
   1521   395      240.4709   198      180.0000      272.0384   324205   51.13%
   1584   444      271.0979   394      180.0000      272.0208   331915   51.12%
   1585   445      268.6013   389      180.0000      271.9842   334759   51.10%
   1613   473      262.6765   326      180.0000      271.9842   340126   51.10%
   1630   490      261.0907   304      180.0000      271.9842   341702   51.10%
   1669   529      233.4319   226      180.0000      271.9842   345874   51.10%
Elapsed time = 69.17 sec. (93896.45 ticks, tree = 9.52 MB, solutions = 8)
   1693   547      269.4272   411      180.0000      271.6663   349454   50.93%
   1700   554      262.4206   348      180.0000      271.6663   354622   50.93%
   1728   582      249.3048   305      180.0000      271.6663   360582   50.93%
   1785   639      238.4708   258      180.0000      271.6663   364936   50.93%
   1813   663      269.2194   403      180.0000      271.0937   368749   50.61%
   1820   670      257.3458   250      180.0000      271.0937   374733   50.61%
   1830   680      254.4486   287      180.0000      271.0937   378897   50.61%
   1846   696      248.6549   264      180.0000      271.0937   384590   50.61%
   1874   722      245.8493   235      180.0000      271.0937   389305   50.61%
   1911   755      224.8443   163      180.0000      271.0937   394631   50.61%
Elapsed time = 76.34 sec. (104075.73 ticks, tree = 11.73 MB, solutions = 8)
   1923   760      268.6415   377      180.0000      271.0903   398005   50.61%
   1945   782      263.9570   351      180.0000      271.0903   403401   50.61%
*  2005+  840                          186.0000      271.0903            45.75%
   2005   842      260.6250   292      186.0000      271.0903   407889   45.75%
   2040   871      270.2049   415      186.0000      270.2044   413450   45.27%
   2064   895      264.8366   356      186.0000      270.2035   418342   45.27%
   2088   919      263.2899   313      186.0000      270.2035   421028   45.27%
*  2105+  934                          188.0000      270.2035            43.73%
   2105   936      262.4184   300      188.0000      270.2035   421902   43.73%
   2169   997      232.8160   212      188.0000      270.2035   426817   43.73%
   2177  1001      265.6602   381      188.0000      270.1747   430157   43.71%
   2205  1029      258.7951   318      188.0000      270.1747   435056   43.71%
Elapsed time = 86.99 sec. (118092.68 ticks, tree = 17.21 MB, solutions = 10)
   2269  1081      265.2329   419      188.0000      270.1474   441861   43.70%
   2295  1107      252.7376   316      188.0000      270.1474   447953   43.70%
   2318  1130      250.1160   278      188.0000      270.1474   450693   43.70%
   2378  1180      265.2676   390      188.0000      269.8467   457729   43.54%
   2385  1187      257.4146   306      188.0000      269.8467   460816   43.54%
   2400  1202      250.7822   244      188.0000      269.8467   466884   43.54%
   2426  1226      242.7397   240      188.0000      269.8467   473470   43.54%
   2463  1259      231.1078   173      188.0000      269.8467   480709   43.54%
   2495  1281      264.3381   367      188.0000      269.8059   486233   43.51%
   2505  1291      262.9681   366      188.0000      269.8059   488069   43.51%
Elapsed time = 96.41 sec. (130700.02 ticks, tree = 22.58 MB, solutions = 10)
   2548  1334      259.4054   337      188.0000      269.8059   493031   43.51%
   2572  1358      242.4597   256      188.0000      269.8059   498218   43.51%
   2601  1381      269.3283   404      188.0000      269.8050   501923   43.51%
   2616  1396      266.0966   387      188.0000      269.8050   506744   43.51%
   2633  1413      258.2559   336      188.0000      269.8050   511809   43.51%
   2677  1457      252.5348   272      188.0000      269.8050   517199   43.51%
   2707  1483      262.4712   399      188.0000      269.7686   524158   43.49%
   2715  1491      256.9808   335      188.0000      269.7686   528266   43.49%
   2748  1524      251.6761   297      188.0000      269.7686   533234   43.49%
   2809  1579      254.0802   353      188.0000      269.5922   555359   43.40%
Elapsed time = 105.64 sec. (143823.62 ticks, tree = 28.53 MB, solutions = 10)
   2897  1661      246.6493   311      188.0000      269.4836   578011   43.34%
   2967  1719      266.3104   404      188.0000      269.4264   603402   43.31%
   3053  1801      269.0973   437      188.0000      269.4037   620605   43.30%
   3091  1839      259.5028   397      188.0000      269.4037   638229   43.30%
   3191  1935      266.3175   414      188.0000      269.3259   654713   43.26%
*  3205+ 1947                          190.0000      269.3259            41.75%
   3285  2029      234.9779   163      190.0000      269.3259   670724   41.75%
*  3405+ 2139                          192.0000      269.2635            40.24%
   3405  2141      239.7282   265      192.0000      269.2635   686943   40.24%
   3457  2189      260.4823   359      192.0000      269.2560   704213   40.24%
*  3505+ 2230                          194.0000      269.2560            38.79%
   3518  2239      263.2512   351      194.0000      269.2490   719456   38.79%
   3577  2292      262.7148   374      194.0000      269.2203   740590   38.77%
Elapsed time = 135.07 sec. (184597.09 ticks, tree = 43.73 MB, solutions = 13)
Starting limited solution polishing.
   3605  2320      256.2802   349      194.0000      269.2203   749752   38.77%
   3698  2407      253.4024   276      194.0000      269.2172   771976   38.77%
   3804  2509      243.9229   281      194.0000      269.2000   795461   38.76%
   3840  2541      261.7386   374      194.0000      269.0970   807900   38.71%
*  3905+ 2596                          196.0000      269.0970            37.29%
   3940  2624      267.8427   443      196.0000      269.0889   826802   37.29%

GUB cover cuts applied:  196
Clique cuts applied:  155
Cover cuts applied:  47
Implied bound cuts applied:  84
Flow cuts applied:  10
Mixed integer rounding cuts applied:  111
Zero-half cuts applied:  109
Lift and project cuts applied:  28
Gomory fractional cuts applied:  3

Root node processing (before b&c):
  Real time             =    2.43 sec. (3357.98 ticks)
Sequential b&c:
  Real time             =  147.58 sec. (201217.99 ticks)
                          ------------
Total (root+branch&cut) =  150.00 sec. (204575.98 ticks)

Solution pool: 15 solutions saved.

MIP - Time limit exceeded, integer feasible:  Objective =  1.9600000000e+02
Current MIP best bound =  2.6908890575e+02 (gap = 73.0889, 37.29%)
Solution time =  150.00 sec.  Iterations = 828492  Nodes = 3942 (2625)
Deterministic time = 204575.99 ticks  (1363.82 ticks/sec)


Incumbent solution
Variable Name           Solution Value
F                           196.000000
y1                            1.000000
y2                            1.000000
y21                           1.000000
y22                           1.000000
y30                           1.000000
y46                           1.000000
y54                           1.000000
y73                           1.000000
y94                           1.000000
y101                          1.000000
y103                          1.000000
y111                          1.000000
y112                          1.000000
y117                          1.000000
y166                          1.000000
y168                          1.000000
y173                          1.000000
y179                          1.000000
y186                          1.000000
y190                          1.000000
y198                          1.000000
y204                          1.000000
y212                          1.000000
y220                          1.000000
y227                          1.000000
y229                          1.000000
y232                          1.000000
y240                          1.000000
y261                          1.000000
y262                          1.000000
x4x73x1                       1.000000
x52x179x1                     1.000000
x90x262x1                     1.000000
x123x30x1                     1.000000
x123x204x1                    1.000000
x151x212x1                    1.000000
x155x2x1                      1.000000
x236x1x1                      1.000000
x51x204x2                     1.000000
x51x229x2                     1.000000
x52x111x2                     1.000000
x80x112x2                     1.000000
x90x30x2                      1.000000
x151x229x2                    1.000000
x155x2x2                      1.000000
x172x198x2                    1.000000
x4x111x3                      1.000000
x45x73x3                      1.000000
x45x212x3                     1.000000
x71x227x3                     2.000000
x80x46x3                      1.000000
x120x179x3                    1.000000
x120x198x3                    1.000000
x172x262x3                    1.000000
x236x1x3                      1.000000
x1x22x1                       1.000000
x1x22x3                       1.000000
x2x46x1                       1.000000
x2x112x2                      1.000000
x204x21x1                     1.000000
x21x168x1                     1.000000
x204x21x2                     1.000000
x21x94x2                      1.000000
x22x168x1                     1.000000
x22x186x3                     1.000000
x30x101x1                     1.000000
x30x101x2                     1.000000
x46x190x1                     1.000000
x46x166x3                     1.000000
x227x54x3                     2.000000
x54x220x3                     2.000000
x73x261x1                     1.000000
x73x103x3                     1.000000
x111x94x2                     1.000000
x94x0x2                       2.000000
x101x0x1                      1.000000
x101x0x2                      1.000000
x198x103x3                    1.000000
x103x0x3                      2.000000
x111x232x3                    1.000000
x112x173x2                    1.000000
x112x186x2                    1.000000
x229x117x2                    1.000000
x117x0x2                      1.000000
x262x117x3                    1.000000
x117x0x3                      1.000000
x198x166x2                    1.000000
x166x0x2                      1.000000
x166x0x3                      1.000000
x168x0x1                      2.000000
x179x173x1                    1.000000
x173x0x1                      1.000000
x173x0x2                      1.000000
x179x240x3                    1.000000
x186x0x2                      1.000000
x186x0x3                      1.000000
x190x0x1                      1.000000
x229x190x2                    1.000000
x190x0x2                      1.000000
x212x232x1                    1.000000
x212x240x3                    1.000000
x220x0x3                      2.000000
x232x0x1                      1.000000
x232x0x3                      1.000000
x240x0x3                      2.000000
x262x261x1                    1.000000
x261x0x1                      2.000000
s4                            5.431327
s1                            6.810000
s2                            6.380791
s9                            6.799707
s12                           7.820000
s21                           7.785023
s22                           8.127122
s24                           7.520000
s30                           6.950375
s34                           8.146067
s46                           7.619304
s53                           6.250000
s54                           7.664294
z4z54z3                       1.000000
s60                           8.380000
s66                           7.500000
z4z66z1                       1.000000
s73                           6.928521
z4z73z1                       1.000000
s81                           7.680000
s84                           8.830000
s101                          8.610000
s103                          8.690000
z4z103z3                      1.000000
s111                          6.885201
z4z111z3                      1.000000
s115                          6.210000
s117                          8.570000
s124                          6.418006
s126                          7.580000
z4z126z1                      1.000000
s127                          7.820000
s134                          6.370000
s135                          7.660000
z4z135z3                      1.000000
s136                          6.000000
s137                          7.024524
s166                          9.040000
s168                          9.420000
z4z168z1                      1.000000
s173                          9.150000
s176                          9.310000
s179                          6.843225
s180                          7.387184
s186                          9.480000
s190                          8.770000
s194                          6.870000
s196                          6.000000
s198                          7.020059
s203                          8.850000
z4z203z3                      1.000000
s204                          6.515689
s212                          6.854089
s220                          9.250000
z4z220z3                      1.000000
s222                          6.450000
s232                          8.570000
s240                          8.820000
z4z240z3                      1.000000
s241                          6.120000
s256                          6.000000
s258                          6.790000
s260                          8.210000
z4z260z1                      1.000000
s261                          8.620000
z4z261z1                      1.000000
s262                          7.352335
s267                          8.640000
z9z168z1                      1.000000
s45                           5.105363
z45z54z3                      1.000000
z45z73z3                      1.000000
z45z103z3                     1.000000
z45z135z3                     1.000000
z45z203z3                     1.000000
z45z212z3                     1.000000
z45z220z3                     1.000000
z45z240z3                     1.000000
s51                           5.049249
s87                           6.580000
s94                           9.310000
z51z94z2                      1.000000
s112                          7.838730
z51z112z2                     1.000000
s121                          7.166118
z51z204z2                     1.000000
s207                          8.160000
z51z207z2                     1.000000
s214                          7.140000
z51z214z2                     1.000000
s218                          6.744897
s229                          7.100000
z51z229z2                     1.000000
s242                          6.666538
s253                          8.120000
z51z253z2                     1.000000
s52                           5.174115
z52z66z1                      1.000000
z52z94z2                      1.000000
z52z111z2                     1.000000
z52z112z2                     1.000000
z52z126z1                     1.000000
z52z168z1                     1.000000
z52z179z1                     1.000000
z52z180z1                     1.000000
z52z207z2                     1.000000
z52z214z2                     1.000000
z52z229z2                     1.000000
z52z253z2                     1.000000
z52z260z1                     1.000000
z52z261z1                     1.000000
s71                           5.094490
z71z54z3                      1.000000
z71z81z3                      1.000000
z71z103z3                     1.000000
z71z124z3                     1.000000
z71z135z3                     1.000000
z71z203z3                     1.000000
z71z220z3                     1.000000
s227                          6.348067
z71z227z3                     1.000000
z71z240z3                     1.000000
s80                           5.645835
z80z46z3                      1.000000
z80z94z2                      1.000000
z80z103z3                     1.000000
z80z112z2                     1.000000
z80z135z3                     1.000000
z80z203z3                     1.000000
z80z214z2                     1.000000
z80z220z3                     1.000000
z80z240z3                     1.000000
z80z253z2                     1.000000
s90                           5.396520
z90z30z2                      1.000000
z90z66z1                      1.000000
z90z94z2                      1.000000
z90z112z2                     1.000000
z90z126z1                     1.000000
z90z168z1                     1.000000
z90z180z1                     1.000000
z90z207z2                     1.000000
z90z214z2                     1.000000
z90z229z2                     1.000000
z90z253z2                     1.000000
z90z260z1                     1.000000
z90z261z1                     1.000000
z90z262z1                     1.000000
s120                          5.608244
z120z103z3                    1.000000
z120z135z3                    1.000000
z120z179z3                    1.000000
z120z198z3                    1.000000
z120z203z3                    1.000000
z120z220z3                    1.000000
z120z240z3                    1.000000
s123                          5.152413
z123z30z1                     1.000000
z123z66z1                     1.000000
z123z126z1                    1.000000
z123z168z1                    1.000000
z123z180z1                    1.000000
z123z204z1                    1.000000
z123z260z1                    1.000000
z123z261z1                    1.000000
s141                          6.000000
z141z168z1                    1.000000
s151                          5.152266
z151z66z1                     1.000000
z151z94z2                     1.000000
z151z112z2                    1.000000
z151z126z1                    1.000000
z151z168z1                    1.000000
z151z180z1                    1.000000
z151z207z2                    1.000000
z151z212z1                    1.000000
z151z214z2                    1.000000
z151z229z2                    1.000000
s251                          6.000000
z151z253z2                    1.000000
z151z260z1                    1.000000
z151z261z1                    1.000000
s155                          4.738992
z155z2z1                      1.000000
z155z2z2                      1.000000
s7                            6.000000
s20                           6.000000
z155z66z1                     1.000000
z155z87z2                     1.000000
z155z94z2                     1.000000
z155z112z2                    1.000000
z155z126z1                    1.000000
z155z168z1                    1.000000
z155z180z1                    1.000000
z155z207z2                    1.000000
z155z214z2                    1.000000
z155z229z2                    1.000000
z155z253z2                    1.000000
z155z260z1                    1.000000
z155z261z1                    1.000000
s172                          5.640000
z172z94z2                     1.000000
z172z103z3                    1.000000
z172z135z3                    1.000000
z172z198z2                    1.000000
z172z203z3                    1.000000
z172z207z2                    1.000000
z172z214z2                    1.000000
z172z220z3                    1.000000
z172z240z3                    1.000000
z172z253z2                    1.000000
z172z262z3                    1.000000
z196z94z2                     1.000000
z218z94z2                     1.000000
s236                          4.775301
z236z1z1                      1.000000
z236z1z3                      1.000000
z236z54z3                     1.000000
z236z66z1                     1.000000
z236z81z3                     1.000000
z236z103z3                    1.000000
z236z126z1                    1.000000
z236z135z3                    1.000000
z236z168z1                    1.000000
z236z180z1                    1.000000
z236z203z3                    1.000000
z236z220z3                    1.000000
z236z240z3                    1.000000
z236z260z1                    1.000000
z236z261z1                    1.000000
z256z94z2                     1.000000
z1z22z1                       1.000000
z1z22z3                       1.000000
z1z168z1                      1.000000
z2z46z1                       1.000000
z2z94z2                       1.000000
z2z112z2                      1.000000
z2z168z1                      1.000000
z7z94z2                       1.000000
z7z253z2                      1.000000
z12z94z2                      1.000000
z20z94z2                      1.000000
z20z168z1                     1.000000
z21z94z2                      1.000000
z21z168z1                     1.000000
z22z168z1                     1.000000
z22z186z3                     1.000000
s29                           6.000000
z30z94z2                      1.000000
z30z101z1                     1.000000
z30z101z2                     1.000000
z30z168z1                     1.000000
z46z166z3                     1.000000
z46z190z1                     1.000000
z53z94z2                      1.000000
z53z168z1                     1.000000
z54z220z3                     1.000000
z73z103z3                     1.000000
z73z168z1                     1.000000
z73z261z1                     1.000000
z87z94z2                      1.000000
z111z94z2                     1.000000
z111z232z3                    1.000000
z112z173z2                    1.000000
z112z186z2                    1.000000
z115z168z1                    1.000000
z121z94z2                     1.000000
z124z103z3                    1.000000
z124z220z3                    1.000000
z134z168z1                    1.000000
z136z168z1                    1.000000
z136z180z1                    1.000000
z137z94z2                     1.000000
z179z168z1                    1.000000
z179z173z1                    1.000000
z179z240z3                    1.000000
z198z94z2                     1.000000
z198z103z3                    1.000000
z198z166z2                    1.000000
z204z21z1                     1.000000
z204z21z2                     1.000000
z204z94z2                     1.000000
z204z168z1                    1.000000
z212z168z1                    1.000000
z212z232z1                    1.000000
z212z240z3                    1.000000
z227z54z3                     1.000000
z227z81z3                     1.000000
z227z220z3                    1.000000
z229z117z2                    1.000000
z229z190z2                    1.000000
z241z94z2                     1.000000
z242z94z2                     1.000000
z242z168z1                    1.000000
z251z168z1                    1.000000
z262z117z3                    1.000000
z262z261z1                    1.000000
All other variables in the range 1-5039 are 0.
